c description: Graph pigeonhole principle formula on fast_gnp_random_graph(20,10,0.5)
c generator: CNFgen (0.9.0)
c copyright: (C) 2012-2020 Massimo Lauria <massimo.lauria@uniroma1.it>
c url: https://massimolauria.net/cnfgen
c
p cnf 97 468
1 2 3 4 0
5 6 7 8 9 10 0
11 12 13 14 0
15 16 0
17 18 19 20 21 0
22 23 24 25 26 0
27 28 29 0
30 31 32 33 34 0
35 36 37 38 39 40 41 0
42 43 44 45 46 0
47 48 49 50 51 52 0
53 54 55 56 57 58 59 60 0
61 62 63 64 65 0
66 67 68 0
69 70 71 72 73 0
74 75 76 77 78 79 0
80 81 82 83 0
84 85 86 87 88 89 0
90 91 92 0
93 94 95 96 97 0
-22 -30 0
-22 -35 0
-22 -42 0
-22 -47 0
-22 -53 0
-22 -61 0
-22 -69 0
-22 -74 0
-22 -90 0
-30 -35 0
-30 -42 0
-30 -47 0
-30 -53 0
-30 -61 0
-30 -69 0
-30 -74 0
-30 -90 0
-35 -42 0
-35 -47 0
-35 -53 0
-35 -61 0
-35 -69 0
-35 -74 0
-35 -90 0
-42 -47 0
-42 -53 0
-42 -61 0
-42 -69 0
-42 -74 0
-42 -90 0
-47 -53 0
-47 -61 0
-47 -69 0
-47 -74 0
-47 -90 0
-53 -61 0
-53 -69 0
-53 -74 0
-53 -90 0
-61 -69 0
-61 -74 0
-61 -90 0
-69 -74 0
-69 -90 0
-74 -90 0
-15 -31 0
-15 -36 0
-15 -54 0
-15 -84 0
-15 -93 0
-31 -36 0
-31 -54 0
-31 -84 0
-31 -93 0
-36 -54 0
-36 -84 0
-36 -93 0
-54 -84 0
-54 -93 0
-84 -93 0
-5 -23 0
-5 -27 0
-5 -37 0
-5 -43 0
-5 -55 0
-5 -70 0
-5 -75 0
-5 -80 0
-5 -85 0
-5 -94 0
-23 -27 0
-23 -37 0
-23 -43 0
-23 -55 0
-23 -70 0
-23 -75 0
-23 -80 0
-23 -85 0
-23 -94 0
-27 -37 0
-27 -43 0
-27 -55 0
-27 -70 0
-27 -75 0
-27 -80 0
-27 -85 0
-27 -94 0
-37 -43 0
-37 -55 0
-37 -70 0
-37 -75 0
-37 -80 0
-37 -85 0
-37 -94 0
-43 -55 0
-43 -70 0
-43 -75 0
-43 -80 0
-43 -85 0
-43 -94 0
-55 -70 0
-55 -75 0
-55 -80 0
-55 -85 0
-55 -94 0
-70 -75 0
-70 -80 0
-70 -85 0
-70 -94 0
-75 -80 0
-75 -85 0
-75 -94 0
-80 -85 0
-80 -94 0
-85 -94 0
-6 -17 0
-6 -38 0
-6 -44 0
-6 -56 0
-6 -62 0
-6 -66 0
-6 -71 0
-6 -81 0
-6 -86 0
-17 -38 0
-17 -44 0
-17 -56 0
-17 -62 0
-17 -66 0
-17 -71 0
-17 -81 0
-17 -86 0
-38 -44 0
-38 -56 0
-38 -62 0
-38 -66 0
-38 -71 0
-38 -81 0
-38 -86 0
-44 -56 0
-44 -62 0
-44 -66 0
-44 -71 0
-44 -81 0
-44 -86 0
-56 -62 0
-56 -66 0
-56 -71 0
-56 -81 0
-56 -86 0
-62 -66 0
-62 -71 0
-62 -81 0
-62 -86 0
-66 -71 0
-66 -81 0
-66 -86 0
-71 -81 0
-71 -86 0
-81 -86 0
-1 -7 0
-1 -24 0
-1 -39 0
-1 -48 0
-1 -72 0
-1 -95 0
-7 -24 0
-7 -39 0
-7 -48 0
-7 -72 0
-7 -95 0
-24 -39 0
-24 -48 0
-24 -72 0
-24 -95 0
-39 -48 0
-39 -72 0
-39 -95 0
-48 -72 0
-48 -95 0
-72 -95 0
-2 -8 0
-2 -11 0
-2 -18 0
-2 -25 0
-2 -28 0
-2 -49 0
-2 -57 0
-2 -63 0
-2 -67 0
-2 -76 0
-2 -82 0
-2 -87 0
-2 -91 0
-8 -11 0
-8 -18 0
-8 -25 0
-8 -28 0
-8 -49 0
-8 -57 0
-8 -63 0
-8 -67 0
-8 -76 0
-8 -82 0
-8 -87 0
-8 -91 0
-11 -18 0
-11 -25 0
-11 -28 0
-11 -49 0
-11 -57 0
-11 -63 0
-11 -67 0
-11 -76 0
-11 -82 0
-11 -87 0
-11 -91 0
-18 -25 0
-18 -28 0
-18 -49 0
-18 -57 0
-18 -63 0
-18 -67 0
-18 -76 0
-18 -82 0
-18 -87 0
-18 -91 0
-25 -28 0
-25 -49 0
-25 -57 0
-25 -63 0
-25 -67 0
-25 -76 0
-25 -82 0
-25 -87 0
-25 -91 0
-28 -49 0
-28 -57 0
-28 -63 0
-28 -67 0
-28 -76 0
-28 -82 0
-28 -87 0
-28 -91 0
-49 -57 0
-49 -63 0
-49 -67 0
-49 -76 0
-49 -82 0
-49 -87 0
-49 -91 0
-57 -63 0
-57 -67 0
-57 -76 0
-57 -82 0
-57 -87 0
-57 -91 0
-63 -67 0
-63 -76 0
-63 -82 0
-63 -87 0
-63 -91 0
-67 -76 0
-67 -82 0
-67 -87 0
-67 -91 0
-76 -82 0
-76 -87 0
-76 -91 0
-82 -87 0
-82 -91 0
-87 -91 0
-9 -12 0
-9 -19 0
-9 -26 0
-9 -32 0
-9 -45 0
-9 -50 0
-9 -64 0
-9 -77 0
-9 -88 0
-12 -19 0
-12 -26 0
-12 -32 0
-12 -45 0
-12 -50 0
-12 -64 0
-12 -77 0
-12 -88 0
-19 -26 0
-19 -32 0
-19 -45 0
-19 -50 0
-19 -64 0
-19 -77 0
-19 -88 0
-26 -32 0
-26 -45 0
-26 -50 0
-26 -64 0
-26 -77 0
-26 -88 0
-32 -45 0
-32 -50 0
-32 -64 0
-32 -77 0
-32 -88 0
-45 -50 0
-45 -64 0
-45 -77 0
-45 -88 0
-50 -64 0
-50 -77 0
-50 -88 0
-64 -77 0
-64 -88 0
-77 -88 0
-3 -13 0
-3 -20 0
-3 -33 0
-3 -40 0
-3 -46 0
-3 -58 0
-3 -68 0
-3 -78 0
-3 -92 0
-3 -96 0
-13 -20 0
-13 -33 0
-13 -40 0
-13 -46 0
-13 -58 0
-13 -68 0
-13 -78 0
-13 -92 0
-13 -96 0
-20 -33 0
-20 -40 0
-20 -46 0
-20 -58 0
-20 -68 0
-20 -78 0
-20 -92 0
-20 -96 0
-33 -40 0
-33 -46 0
-33 -58 0
-33 -68 0
-33 -78 0
-33 -92 0
-33 -96 0
-40 -46 0
-40 -58 0
-40 -68 0
-40 -78 0
-40 -92 0
-40 -96 0
-46 -58 0
-46 -68 0
-46 -78 0
-46 -92 0
-46 -96 0
-58 -68 0
-58 -78 0
-58 -92 0
-58 -96 0
-68 -78 0
-68 -92 0
-68 -96 0
-78 -92 0
-78 -96 0
-92 -96 0
-4 -14 0
-4 -16 0
-4 -21 0
-4 -29 0
-4 -34 0
-4 -51 0
-4 -59 0
-4 -65 0
-4 -73 0
-4 -89 0
-14 -16 0
-14 -21 0
-14 -29 0
-14 -34 0
-14 -51 0
-14 -59 0
-14 -65 0
-14 -73 0
-14 -89 0
-16 -21 0
-16 -29 0
-16 -34 0
-16 -51 0
-16 -59 0
-16 -65 0
-16 -73 0
-16 -89 0
-21 -29 0
-21 -34 0
-21 -51 0
-21 -59 0
-21 -65 0
-21 -73 0
-21 -89 0
-29 -34 0
-29 -51 0
-29 -59 0
-29 -65 0
-29 -73 0
-29 -89 0
-34 -51 0
-34 -59 0
-34 -65 0
-34 -73 0
-34 -89 0
-51 -59 0
-51 -65 0
-51 -73 0
-51 -89 0
-59 -65 0
-59 -73 0
-59 -89 0
-65 -73 0
-65 -89 0
-73 -89 0
-10 -41 0
-10 -52 0
-10 -60 0
-10 -79 0
-10 -83 0
-10 -97 0
-41 -52 0
-41 -60 0
-41 -79 0
-41 -83 0
-41 -97 0
-52 -60 0
-52 -79 0
-52 -83 0
-52 -97 0
-60 -79 0
-60 -83 0
-60 -97 0
-79 -83 0
-79 -97 0
-83 -97 0